jobs  (incl. supersource/sink ):	102
RESOURCES
- renewable                 : 2 R
- nonrenewable              : 2 N
- doubly constrained        : 0 D
************************************************************************
PRECEDENCE RELATIONS:
jobnr.    #modes  #successors   successors
1	1	15		2 3 4 5 6 7 8 9 12 13 14 17 19 25 33 
2	3	10		34 31 30 29 28 27 23 22 18 10 
3	3	6		37 32 23 20 18 11 
4	3	4		45 38 23 11 
5	3	4		38 35 26 11 
6	3	11		60 55 47 45 43 41 40 35 34 30 23 
7	3	10		54 48 45 43 38 37 34 27 24 22 
8	3	5		43 42 21 20 15 
9	3	13		62 55 51 49 46 44 43 39 38 36 32 30 27 
10	3	9		83 55 52 45 39 38 37 35 20 
11	3	8		54 49 48 43 40 34 27 22 
12	3	6		60 42 41 36 30 16 
13	3	12		65 60 58 55 53 50 47 46 39 35 34 30 
14	3	11		71 55 49 48 47 46 43 36 34 32 31 
15	3	11		55 51 50 49 47 46 45 39 36 34 30 
16	3	14		71 68 65 62 58 54 51 50 49 48 47 46 43 39 
17	3	7		48 46 43 39 38 34 27 
18	3	13		83 71 68 66 62 54 52 51 47 44 42 39 38 
19	3	9		71 60 53 51 50 47 45 36 34 
20	3	14		71 64 63 62 61 60 56 54 53 51 50 47 46 36 
21	3	12		83 71 68 64 61 60 54 52 50 49 47 36 
22	3	13		71 68 64 61 60 56 55 53 51 50 47 46 36 
23	3	11		83 71 70 63 53 52 51 48 46 39 36 
24	3	11		71 68 64 62 61 60 51 50 49 47 36 
25	3	11		81 78 62 57 54 51 50 48 45 43 40 
26	3	11		78 66 65 63 60 58 56 52 48 47 46 
27	3	15		83 78 71 67 66 65 64 63 61 59 58 57 53 52 47 
28	3	7		83 71 70 63 56 46 36 
29	3	7		71 65 64 60 51 43 39 
30	3	15		101 83 81 78 77 75 73 71 69 68 66 64 61 59 54 
31	3	12		83 81 78 77 69 66 64 62 61 59 57 54 
32	3	8		82 78 63 57 54 53 50 45 
33	3	9		82 77 70 67 66 65 64 63 46 
34	3	11		101 83 81 78 70 66 63 62 59 56 52 
35	3	6		81 76 68 54 49 48 
36	3	9		99 82 78 67 66 65 59 58 57 
37	3	16		101 100 99 94 80 79 78 77 76 74 73 72 71 70 67 56 
38	3	6		78 70 63 59 58 57 
39	3	10		101 100 99 82 81 80 78 73 59 56 
40	3	9		101 100 83 77 73 65 61 59 56 
41	3	11		101 99 76 74 72 70 67 66 65 62 56 
42	3	10		100 99 96 88 80 77 69 67 59 57 
43	3	13		101 98 96 83 77 76 75 74 73 72 67 63 53 
44	3	13		98 95 94 93 81 80 78 77 75 74 72 65 64 
45	3	8		101 95 88 75 73 69 64 59 
46	3	4		81 69 59 57 
47	3	15		101 99 95 94 90 81 80 79 77 76 75 74 73 72 70 
48	3	9		98 94 88 79 74 69 67 64 61 
49	3	5		96 80 73 63 56 
50	3	12		100 99 97 94 91 90 79 77 76 74 73 66 
51	3	5		101 97 88 75 59 
52	3	13		100 99 97 94 92 90 88 86 85 82 80 79 72 
53	3	13		100 99 95 94 92 90 89 88 87 86 85 84 69 
54	3	9		99 94 93 91 90 74 72 70 67 
55	3	10		101 98 95 88 86 85 84 79 78 72 
56	3	10		98 95 92 90 88 87 86 84 75 69 
57	3	10		101 95 94 93 92 90 89 86 75 73 
58	3	9		98 94 92 91 89 81 77 76 73 
59	3	8		98 94 90 86 79 76 74 72 
60	3	8		101 98 96 94 88 86 80 73 
61	3	7		95 92 91 90 86 82 72 
62	3	5		100 95 86 75 73 
63	3	8		100 99 97 94 90 89 88 85 
64	3	6		100 99 90 87 86 85 
65	3	6		96 91 88 86 85 84 
66	3	4		96 95 88 80 
67	3	4		89 86 85 84 
68	3	4		96 90 85 84 
69	3	3		97 93 91 
70	3	3		88 86 84 
71	3	3		89 87 86 
72	3	2		89 87 
73	3	2		87 84 
74	3	2		92 85 
75	3	2		91 85 
76	3	2		85 84 
77	3	2		86 84 
78	3	2		97 96 
79	3	1		93 
80	3	1		84 
81	3	1		88 
82	3	1		84 
83	3	1		85 
84	3	1		102 
85	3	1		102 
86	3	1		102 
87	3	1		102 
88	3	1		102 
89	3	1		102 
90	3	1		102 
91	3	1		102 
92	3	1		102 
93	3	1		102 
94	3	1		102 
95	3	1		102 
96	3	1		102 
97	3	1		102 
98	3	1		102 
99	3	1		102 
100	3	1		102 
101	3	1		102 
102	1	0		
************************************************************************
REQUESTS/DURATIONS
jobnr.	mode	dur	R1	R2	N1	N2	
------------------------------------------------------------------------
1	1	0	0	0	0	0	
2	1	1	9	10	8	6	
	2	4	7	7	8	6	
	3	5	4	7	8	5	
3	1	2	6	4	3	10	
	2	8	6	3	3	10	
	3	9	6	3	3	9	
4	1	2	8	5	9	7	
	2	7	5	4	5	7	
	3	9	3	2	4	5	
5	1	4	4	9	4	5	
	2	9	4	6	2	5	
	3	10	4	4	2	5	
6	1	4	1	2	10	5	
	2	5	1	2	9	5	
	3	7	1	1	9	5	
7	1	2	7	9	7	6	
	2	5	6	4	7	6	
	3	6	6	3	7	6	
8	1	1	9	10	6	8	
	2	4	5	8	6	8	
	3	8	3	6	6	8	
9	1	4	7	9	7	3	
	2	6	7	8	7	3	
	3	10	5	8	4	3	
10	1	3	6	6	6	4	
	2	4	6	3	5	4	
	3	10	5	2	5	3	
11	1	1	8	6	3	5	
	2	6	6	4	2	4	
	3	8	5	4	2	4	
12	1	2	5	5	9	5	
	2	6	5	2	6	5	
	3	7	5	2	5	5	
13	1	1	9	2	4	7	
	2	2	8	2	3	4	
	3	9	8	2	2	1	
14	1	4	7	8	6	4	
	2	5	7	5	6	3	
	3	7	7	4	6	2	
15	1	6	9	8	9	9	
	2	7	9	6	5	9	
	3	10	8	5	1	8	
16	1	1	7	5	6	8	
	2	2	5	4	6	5	
	3	9	4	4	3	5	
17	1	1	8	6	7	4	
	2	4	6	4	4	4	
	3	6	3	4	3	4	
18	1	5	1	7	10	7	
	2	6	1	7	4	5	
	3	9	1	7	3	2	
19	1	3	9	6	9	9	
	2	4	7	5	7	6	
	3	9	5	4	7	6	
20	1	3	9	9	5	10	
	2	4	6	8	5	8	
	3	8	5	8	4	8	
21	1	2	7	9	5	9	
	2	4	5	6	5	8	
	3	9	3	5	5	4	
22	1	1	7	5	6	8	
	2	7	5	5	6	7	
	3	8	3	5	5	5	
23	1	6	8	7	8	6	
	2	7	6	4	7	5	
	3	10	6	2	2	4	
24	1	3	9	9	9	5	
	2	6	7	7	4	5	
	3	9	7	5	4	5	
25	1	1	6	5	4	2	
	2	2	5	5	3	2	
	3	10	4	5	3	2	
26	1	1	8	8	9	4	
	2	6	8	7	9	2	
	3	8	6	7	9	2	
27	1	3	9	8	8	7	
	2	4	8	7	5	6	
	3	7	8	7	3	4	
28	1	3	5	10	7	8	
	2	8	4	10	5	5	
	3	9	2	10	2	2	
29	1	5	6	8	4	9	
	2	8	2	5	3	6	
	3	9	2	4	3	6	
30	1	2	7	8	6	4	
	2	5	6	8	6	3	
	3	9	5	7	4	2	
31	1	2	8	9	6	10	
	2	9	4	8	4	5	
	3	10	3	7	2	2	
32	1	3	4	6	4	6	
	2	4	4	3	4	6	
	3	9	3	2	2	6	
33	1	1	10	5	7	9	
	2	6	6	5	6	5	
	3	10	4	2	4	4	
34	1	6	3	10	8	8	
	2	7	2	8	5	5	
	3	8	1	6	2	2	
35	1	3	6	9	6	3	
	2	5	3	6	5	3	
	3	6	2	3	3	3	
36	1	5	5	10	3	4	
	2	6	5	9	1	4	
	3	10	3	8	1	2	
37	1	2	8	7	7	7	
	2	3	8	5	5	6	
	3	4	8	3	5	5	
38	1	1	8	9	5	7	
	2	2	5	6	4	6	
	3	6	4	4	4	5	
39	1	1	8	6	10	8	
	2	4	7	6	8	7	
	3	9	7	6	6	4	
40	1	2	8	8	4	4	
	2	5	6	5	4	4	
	3	8	6	1	2	4	
41	1	3	3	6	9	4	
	2	4	3	4	8	2	
	3	10	2	3	8	1	
42	1	4	8	8	4	1	
	2	8	7	8	4	1	
	3	9	7	5	4	1	
43	1	2	5	5	8	7	
	2	7	3	4	5	7	
	3	9	3	4	2	7	
44	1	1	9	1	10	3	
	2	6	6	1	7	2	
	3	7	3	1	7	2	
45	1	2	3	9	9	7	
	2	4	2	6	5	7	
	3	7	2	6	4	7	
46	1	2	9	4	7	9	
	2	4	8	3	5	8	
	3	5	7	2	5	8	
47	1	2	6	1	4	10	
	2	4	6	1	3	9	
	3	5	3	1	2	8	
48	1	4	7	10	10	7	
	2	8	5	6	9	7	
	3	10	5	5	9	7	
49	1	1	3	9	2	7	
	2	8	3	5	1	6	
	3	9	1	4	1	6	
50	1	3	4	7	10	10	
	2	5	4	4	8	8	
	3	8	4	4	8	7	
51	1	2	10	7	1	8	
	2	3	4	5	1	7	
	3	4	2	4	1	7	
52	1	6	6	7	6	8	
	2	7	4	7	4	6	
	3	8	2	5	2	4	
53	1	2	7	5	7	4	
	2	3	4	5	5	3	
	3	5	2	5	5	2	
54	1	3	7	8	8	9	
	2	8	6	8	7	7	
	3	9	4	8	6	3	
55	1	3	9	6	8	7	
	2	5	9	5	7	3	
	3	10	9	4	3	3	
56	1	4	8	5	8	9	
	2	9	7	4	6	8	
	3	10	6	4	6	6	
57	1	7	5	6	5	7	
	2	8	5	5	5	6	
	3	10	5	3	5	4	
58	1	3	8	8	5	8	
	2	5	6	5	4	8	
	3	6	1	1	4	8	
59	1	4	9	8	4	4	
	2	7	8	6	3	2	
	3	9	7	5	3	2	
60	1	2	8	6	9	7	
	2	9	7	3	9	5	
	3	10	7	3	8	5	
61	1	5	3	1	8	10	
	2	6	3	1	8	9	
	3	8	3	1	8	8	
62	1	1	2	7	10	8	
	2	3	2	6	8	5	
	3	4	2	6	8	4	
63	1	2	10	8	6	8	
	2	5	8	6	4	5	
	3	9	7	3	3	5	
64	1	6	6	7	8	8	
	2	7	5	7	8	8	
	3	8	3	7	8	8	
65	1	2	10	4	5	4	
	2	5	10	2	4	3	
	3	10	10	2	3	2	
66	1	6	9	8	6	10	
	2	7	9	7	5	9	
	3	8	9	6	4	8	
67	1	1	10	3	3	5	
	2	2	6	3	2	5	
	3	9	6	3	2	4	
68	1	4	7	5	1	7	
	2	5	7	3	1	6	
	3	8	5	1	1	5	
69	1	4	6	10	10	3	
	2	8	4	6	9	2	
	3	9	2	4	8	2	
70	1	3	4	4	7	7	
	2	4	4	4	6	7	
	3	10	4	4	6	6	
71	1	5	10	4	5	9	
	2	6	6	2	4	8	
	3	7	5	1	3	8	
72	1	2	6	9	6	8	
	2	5	5	5	3	5	
	3	8	5	3	2	5	
73	1	3	8	8	8	10	
	2	4	7	8	6	6	
	3	5	7	8	3	4	
74	1	6	5	8	7	10	
	2	8	4	6	6	8	
	3	9	2	6	6	8	
75	1	1	4	2	6	8	
	2	4	2	1	4	7	
	3	8	2	1	3	7	
76	1	3	5	7	8	6	
	2	5	4	7	8	5	
	3	8	3	6	8	2	
77	1	1	8	9	9	6	
	2	7	8	8	9	5	
	3	9	6	7	9	3	
78	1	2	5	6	8	6	
	2	7	4	4	5	6	
	3	9	3	2	5	6	
79	1	2	6	6	4	9	
	2	6	6	5	2	4	
	3	7	5	2	2	1	
80	1	1	5	10	7	8	
	2	7	2	8	7	7	
	3	8	1	7	7	7	
81	1	2	7	9	6	9	
	2	3	7	9	4	5	
	3	9	5	9	4	2	
82	1	1	10	9	6	5	
	2	2	9	7	6	4	
	3	7	8	7	6	3	
83	1	2	8	8	9	7	
	2	3	5	7	6	6	
	3	5	2	4	5	5	
84	1	4	10	3	9	8	
	2	5	9	2	5	6	
	3	10	7	2	5	4	
85	1	1	5	1	2	9	
	2	2	3	1	1	6	
	3	9	2	1	1	5	
86	1	2	8	6	6	7	
	2	3	6	2	6	6	
	3	6	6	2	3	5	
87	1	2	6	6	9	7	
	2	6	6	6	3	6	
	3	8	6	6	1	6	
88	1	2	8	7	7	5	
	2	5	7	5	4	4	
	3	9	6	5	1	4	
89	1	2	5	9	4	3	
	2	6	5	6	2	3	
	3	9	5	3	2	2	
90	1	2	9	5	8	10	
	2	6	8	5	7	8	
	3	8	8	3	6	7	
91	1	3	2	2	8	8	
	2	5	2	1	5	8	
	3	9	2	1	2	8	
92	1	6	5	7	3	5	
	2	8	4	7	3	5	
	3	9	2	4	3	3	
93	1	1	9	6	5	5	
	2	2	8	6	4	3	
	3	3	7	5	1	3	
94	1	3	7	10	6	9	
	2	4	6	9	3	8	
	3	8	6	9	1	7	
95	1	8	5	7	6	6	
	2	9	4	7	5	3	
	3	10	4	5	5	2	
96	1	5	5	9	3	7	
	2	6	5	8	1	5	
	3	9	4	5	1	3	
97	1	2	8	10	4	2	
	2	3	6	6	4	2	
	3	5	4	4	3	2	
98	1	3	9	8	6	5	
	2	6	5	4	5	5	
	3	7	2	1	5	5	
99	1	3	6	8	6	8	
	2	6	6	7	4	4	
	3	10	6	5	3	3	
100	1	1	9	9	6	2	
	2	6	6	6	5	1	
	3	8	5	5	3	1	
101	1	2	10	10	4	7	
	2	3	8	5	3	6	
	3	4	8	5	3	5	
102	1	0	0	0	0	0	
************************************************************************

 RESOURCE AVAILABILITIES 
	R 1	R 2	N 1	N 2
	57	57	527	564

************************************************************************
